language Essence 1.3

letting class be function(1 --> 1, 2 --> 1, 3 --> 1, 4 --> 1, 5 --> 1, 6 --> 1, 7 --> 1, 8 --> 1)
letting deck_length be 16
letting deck_width be 36
letting length be function(1 --> 4, 2 --> 3, 3 --> 16, 4 --> 3, 5 --> 4, 6 --> 8, 7 --> 8, 8 --> 14)
letting n_classes be 1
letting n_containers be 8
letting separation be function()
letting width be function(1 --> 1, 2 --> 1, 3 --> 19, 4 --> 1, 5 --> 1, 6 --> 8, 7 --> 5, 8 --> 11)
